Route #1: 1 45 19 25 19 50 19 4 1 
Route #2: 1 27 11 32 11 10 40 11 59 13 1 
Route #3: 1 3 48 60 48 6 16 58 55 36 8 1 
Route #4: 1 7 34 2 43 42 44 2 17 52 1 
Route #5: 1 11 54 11 12 39 11 1 
Route #6: 1 31 49 48 37 21 38 48 30 46 5 1 
Route #7: 1 48 22 29 23 2 24 57 2 1 
Route #8: 1 41 51 19 56 26 19 33 18 1 
Route #9: 1 35 53 28 14 55 20 15 55 9 47 1 
Cost 983.0
